15	2	2
2355	2355	
972	967	1041	
316	651	686	
535	914	918	
492	748	766	
232	132	139	
764	566	590	
810	475	485	
504	862	917	
145	820	873	
86	196	202	
808	975	1057	
152	774	800	
109	177	189	
378	430	445	
59	736	770	
